[[86, 85, 95, 94, 93, 92, 91, 82, 83, 84, 73, 76, 75, 74, 67, 68, 59, 58, 66, 65, 64, 56, 57, 55, 46, 47, 38, 48, 39, 40, 41, 32, 31], [30, 29, 37, 28, 19, 21, 22, 13, 20, 11, 10, 2, 12, 3, 4, 14, 5, 6, 7, 8, 9, 18, 17, 16, 15, 23, 24, 25, 26, 27, 35, 36], [44, 45, 34, 43, 33, 42, 50, 49, 60, 51, 52, 53, 54, 63, 62, 61, 70, 71, 72, 81, 80, 69, 78, 77, 79, 89, 90, 99, 98, 97, 96, 88, 87]]